
Gurobi 9.5.1 (linux64, gurobi_cl) logging started Tue Jan 31 14:50:13 2023

Set parameter Username
Set parameter TimeLimit to value 7200
Set parameter LogFile to value "./log/reopt_p2/problem2_14.log"
Set parameter Threads to value 1
Academic license - for non-commercial use only - expires 2023-07-13
Using license file /opt/gurobi951/linux64/gurobi.lic

Gurobi Optimizer version 9.5.1 build v9.5.1rc2 (linux64)
Copyright (c) 2022, Gurobi Optimization, LLC

Read MPS format model from file ./ins/reopt_p2/problem2_14.mps.mps.gz
Reading time = 1.93 seconds
problem_: 379835 rows, 1055788 columns, 2330268 nonzeros
Thread count: 112 physical cores, 224 logical processors, using up to 1 threads
Optimize a model with 379835 rows, 1055788 columns and 2330268 nonzeros
Model fingerprint: 0x3a4b3fdc
Variable types: 0 continuous, 1055788 integer (1055788 binary)
Coefficient statistics:
  Matrix range     [3e-02, 2e+02]
  Objective range  [4e-01, 6e+01]
  Bounds range     [1e+00, 1e+00]
  RHS range        [1e+00, 1e+00]
Presolve removed 240 rows and 249 columns (presolve time = 5s) ...
Presolve removed 313 rows and 489 columns (presolve time = 242s) ...
Presolve removed 313 rows and 489 columns
Presolve time: 242.79s
Presolved: 379522 rows, 1055299 columns, 2329475 nonzeros
Variable types: 0 continuous, 1055299 integer (1055299 binary)
Found heuristic solution: objective 358169.23600
Found heuristic solution: objective 337426.47400

Root simplex log...

Iteration    Objective       Primal Inf.    Dual Inf.      Time
       0    1.6989132e+04   2.617000e+03   0.000000e+00    266s
    6827    2.4171649e+04   0.000000e+00   0.000000e+00    266s

Use crossover to convert LP symmetric solution to basic solution...

Root crossover log...

       0 DPushes remaining with DInf 0.0000000e+00               266s

       0 PPushes remaining with PInf 0.0000000e+00               266s

  Push phase complete: Pinf 0.0000000e+00, Dinf 2.0811941e-11    266s


Root simplex log...

Iteration    Objective       Primal Inf.    Dual Inf.      Time
    7459    2.4171649e+04   0.000000e+00   0.000000e+00    266s
    7459    2.4171649e+04   0.000000e+00   0.000000e+00    267s

Root relaxation: objective 2.417165e+04, 7459 iterations, 4.00 seconds (2.04 work units)

    Nodes    |    Current Node    |     Objective Bounds      |     Work
 Expl Unexpl |  Obj  Depth IntInf | Incumbent    BestBd   Gap | It/Node Time

     0     0 24171.6490    0 10582 337426.474 24171.6490  92.8%     -  376s
H    0     0                    144316.26400 24171.6490  83.3%     -  376s
     0     0 27310.0086    0 15602 144316.264 27310.0086  81.1%     -  433s
H    0     0                    141886.49000 27310.0086  80.8%     -  446s
     0     0 27339.3803    0 14935 141886.490 27339.3803  80.7%     -  473s
     0     0 27339.3803    0 14937 141886.490 27339.3803  80.7%     -  527s
     0     0 28956.2490    0 22732 141886.490 28956.2490  79.6%     -  822s
     0     0 29098.7838    0 22313 141886.490 29098.7838  79.5%     -  945s
     0     0 29109.3515    0 24471 141886.490 29109.3515  79.5%     -  984s
     0     0 29114.9824    0 23437 141886.490 29114.9824  79.5%     - 1013s
     0     0 29115.8210    0 23447 141886.490 29115.8210  79.5%     - 1051s
     0     0 29115.8801    0 23449 141886.490 29115.8801  79.5%     - 1053s
     0     0 30669.8657    0 53441 141886.490 30669.8657  78.4%     - 2849s
H    0     0                    141208.61200 30669.8657  78.3%     - 2871s
     0     0 31238.9030    0 74091 141208.612 31238.9030  77.9%     - 4041s
     0     0 31336.1927    0 55703 141208.612 31336.1927  77.8%     - 4377s
     0     0 31383.6932    0 62560 141208.612 31383.6932  77.8%     - 4679s
     0     0 31406.4053    0 73353 141208.612 31406.4053  77.8%     - 4806s
     0     0 31414.3000    0 48765 141208.612 31414.3000  77.8%     - 4906s
     0     0 31416.4826    0 50444 141208.612 31416.4826  77.8%     - 4978s
     0     0 31419.1743    0 50038 141208.612 31419.1743  77.7%     - 5017s
     0     0 31420.5074    0 50219 141208.612 31420.5074  77.7%     - 5027s
     0     0 31420.5462    0 50280 141208.612 31420.5462  77.7%     - 5031s
     0     0 32231.7112    0 105766 141208.612 32231.7112  77.2%     - 6798s
H    0     0                    141112.72000 32231.7112  77.2%     - 6804s
     0     0          -    0      141112.720 32231.7112  77.2%     - 7200s

Cutting planes:
  Gomory: 227
  Lift-and-project: 1
  Cover: 20710
  Clique: 9094
  MIR: 4949
  StrongCG: 1049
  Zero half: 1

Explored 1 nodes (615817 simplex iterations) in 7200.11 seconds (5247.53 work units)
Thread count was 1 (of 224 available processors)

Solution count 6: 141113 141209 141886 ... 358169

Time limit reached
Best objective 1.411127200000e+05, best bound 3.223171122282e+04, gap 77.1589%

Gurobi 10.0.2 (linux64) logging started Tue Sep  5 17:38:00 2023

Set parameter LogFile to value "../reopt_p2/problem2_14.log"
Set parameter TimeLimit to value 600
Gurobi Optimizer version 10.0.2 build v10.0.2rc0 (linux64)

CPU model: Intel(R) Xeon(R) Platinum 8280 CPU @ 2.70GHz, instruction set [SSE2|AVX|AVX2|AVX512]
Thread count: 112 physical cores, 112 logical processors, using up to 32 threads

Optimize a model with 379835 rows, 1055788 columns and 2330268 nonzeros
Model fingerprint: 0x3a4b3fdc
Variable types: 0 continuous, 1055788 integer (1055788 binary)
Coefficient statistics:
  Matrix range     [3e-02, 2e+02]
  Objective range  [4e-01, 6e+01]
  Bounds range     [1e+00, 1e+00]
  RHS range        [1e+00, 1e+00]
Presolve removed 240 rows and 249 columns (presolve time = 5s) ...
Presolve removed 313 rows and 489 columns (presolve time = 10s) ...
Presolve removed 313 rows and 489 columns (presolve time = 324s) ...
Presolve removed 313 rows and 489 columns
Presolve time: 324.98s
Presolved: 379522 rows, 1055299 columns, 2329475 nonzeros
Variable types: 0 continuous, 1055299 integer (1055299 binary)
Found heuristic solution: objective 358169.23600
Found heuristic solution: objective 337426.47400
Deterministic concurrent LP optimizer: primal simplex, dual simplex, and barrier
Showing barrier log only...

Root barrier log...

Ordering time: 0.13s

Barrier statistics:
 AA' NZ     : 1.315e+06
 Factor NZ  : 3.620e+06 (roughly 60 MB of memory)
 Factor Ops : 6.783e+08 (less than 1 second per iteration)
 Threads    : 30

                  Objective                Residual
Iter       Primal          Dual         Primal    Dual     Compl     Time
   0   1.19024436e+06 -9.32584139e+06  3.50e+01 1.53e+01  3.91e+02   359s
   1   3.94398706e+05 -4.45658788e+06  1.04e+01 1.60e-13  1.04e+02   359s
   2   8.71821125e+04 -9.76345925e+05  1.19e+00 5.68e-12  1.38e+01   359s

Barrier performed 2 iterations in 359.12 seconds (138.05 work units)
Barrier solve interrupted - model solved by another algorithm

Concurrent spin time: 0.07s

Solved with dual simplex

Use crossover to convert LP symmetric solution to basic solution...

Root crossover log...

       0 DPushes remaining with DInf 0.0000000e+00               359s

       0 PPushes remaining with PInf 0.0000000e+00               359s

  Push phase complete: Pinf 0.0000000e+00, Dinf 2.0811941e-11    359s


Root simplex log...

Iteration    Objective       Primal Inf.    Dual Inf.      Time
    7459    2.4171649e+04   0.000000e+00   0.000000e+00    359s
    7459    2.4171649e+04   0.000000e+00   0.000000e+00    360s

Root relaxation: objective 2.417165e+04, 7459 iterations, 5.23 seconds (2.04 work units)

    Nodes    |    Current Node    |     Objective Bounds      |     Work
 Expl Unexpl |  Obj  Depth IntInf | Incumbent    BestBd   Gap | It/Node Time

     0     0 24171.6490    0 10582 337426.474 24171.6490  92.8%     -  474s
H    0     0                    144316.26400 24171.6490  83.3%     -  474s
     0     0 27310.0086    0 15602 144316.264 27310.0086  81.1%     -  558s
H    0     0                    141886.49000 27310.0086  80.8%     -  580s
     0     0 27339.3803    0 14935 141886.490 27339.3803  80.7%     -  606s

Cutting planes:
  Gomory: 109
  Cover: 4982
  Clique: 1842
  MIR: 1177
  StrongCG: 1155

Explored 1 nodes (26687 simplex iterations) in 606.84 seconds (177.70 work units)
Thread count was 32 (of 112 available processors)

Solution count 4: 141886 144316 337426 358169 

Time limit reached
Best objective 1.418864900000e+05, best bound 2.733938028394e+04, gap 80.7315%

Gurobi 10.0.2 (linux64) logging started Wed Sep  6 11:09:09 2023

Set parameter LogFile to value "../reopt_p2/problem2_14.log"
Set parameter TimeLimit to value 600
Set parameter Threads to value 30
Gurobi Optimizer version 10.0.2 build v10.0.2rc0 (linux64)

CPU model: Intel(R) Xeon(R) Platinum 8280 CPU @ 2.70GHz, instruction set [SSE2|AVX|AVX2|AVX512]
Thread count: 112 physical cores, 112 logical processors, using up to 30 threads

Optimize a model with 379835 rows, 1055788 columns and 2330268 nonzeros
Model fingerprint: 0x3a4b3fdc
Variable types: 0 continuous, 1055788 integer (1055788 binary)
Coefficient statistics:
  Matrix range     [3e-02, 2e+02]
  Objective range  [4e-01, 6e+01]
  Bounds range     [1e+00, 1e+00]
  RHS range        [1e+00, 1e+00]
Presolve removed 313 rows and 489 columns (presolve time = 5s) ...
Presolve removed 313 rows and 489 columns (presolve time = 114s) ...
Presolve removed 313 rows and 489 columns
Presolve time: 114.73s
Presolved: 379522 rows, 1055299 columns, 2329475 nonzeros
Variable types: 0 continuous, 1055299 integer (1055299 binary)
Found heuristic solution: objective 358169.23600
Found heuristic solution: objective 337426.47400
Deterministic concurrent LP optimizer: primal simplex, dual simplex, and barrier
Showing barrier log only...

Root barrier log...

Ordering time: 0.12s

Barrier statistics:
 AA' NZ     : 1.315e+06
 Factor NZ  : 3.620e+06 (roughly 60 MB of memory)
 Factor Ops : 6.783e+08 (less than 1 second per iteration)
 Threads    : 28

                  Objective                Residual
Iter       Primal          Dual         Primal    Dual     Compl     Time
   0   1.19024436e+06 -9.32584139e+06  3.50e+01 1.53e+01  3.91e+02   136s
   1   3.94398706e+05 -4.45658788e+06  1.04e+01 1.60e-13  1.04e+02   136s
   2   8.71821125e+04 -9.76345925e+05  1.19e+00 6.03e-12  1.38e+01   136s

Barrier performed 2 iterations in 136.10 seconds (138.05 work units)
Barrier solve interrupted - model solved by another algorithm

Concurrent spin time: 0.14s (can be avoided by choosing Method=3)

Solved with dual simplex

Use crossover to convert LP symmetric solution to basic solution...

Root crossover log...

       0 DPushes remaining with DInf 0.0000000e+00               136s

       0 PPushes remaining with PInf 0.0000000e+00               136s

  Push phase complete: Pinf 0.0000000e+00, Dinf 2.0811941e-11    136s


Root simplex log...

Iteration    Objective       Primal Inf.    Dual Inf.      Time
    7459    2.4171649e+04   0.000000e+00   0.000000e+00    136s
    7459    2.4171649e+04   0.000000e+00   0.000000e+00    137s

Root relaxation: objective 2.417165e+04, 7459 iterations, 3.45 seconds (2.04 work units)

    Nodes    |    Current Node    |     Objective Bounds      |     Work
 Expl Unexpl |  Obj  Depth IntInf | Incumbent    BestBd   Gap | It/Node Time

     0     0 24171.6490    0 10582 337426.474 24171.6490  92.8%     -  208s
H    0     0                    144316.26400 24171.6490  83.3%     -  209s
     0     0 27310.0086    0 15602 144316.264 27310.0086  81.1%     -  247s
H    0     0                    141886.49000 27310.0086  80.8%     -  258s
     0     0 27339.3803    0 14935 141886.490 27339.3803  80.7%     -  275s
     0     0 27339.3803    0 14937 141886.490 27339.3803  80.7%     -  317s
     0     0 28956.2490    0 22730 141886.490 28956.2490  79.6%     -  510s
     0     0 29098.7838    0 22304 141886.490 29098.7838  79.5%     -  592s
     0     0          -    0      141886.490 29098.7838  79.5%     -  600s

Cutting planes:
  Gomory: 154
  Cover: 8261
  Clique: 3131
  MIR: 2036
  StrongCG: 1335

Explored 1 nodes (95113 simplex iterations) in 600.10 seconds (589.61 work units)
Thread count was 30 (of 112 available processors)

Solution count 4: 141886 144316 337426 358169 

Time limit reached
Best objective 1.418864900000e+05, best bound 2.909878382297e+04, gap 79.4915%
